/*********************************************
    * Lab01 - simple
    * Author: Coso
    * Creation Date: Mar, 2019
    *********************************************/
instance_name = "medium_instance_06_simple";

d = 5;
r = 15;

SCj = [293 303 283 302 284];
Dk = [73 49 96 15 59 93 13 96 44 72 79 99 98 89 52];

Cjk = [[65 50 66 42 52 38 82 76 52 73 82 47 52 55 69]
 [39 88 82 81 73 50 40 43 31 66 48 31 84 73 73]
 [71 58 42 85 41 73 88 87 65 84 63 85 31 52 30]
 [30 54 63 79 58 65 80 37 86 39 82 52 67 60 41]
 [87 34 70 59 57 50 41 55 58 40 30 66 61 43 52]];
